NAME: random96
TYPE: TSP
DIMENSION: 96
EDGE_WEIGHT_TYPE: EXPLICIT
EDGE_WEIGHT_FORMAT: FULL_MATRIX
EDGE_WEIGHT_SECTION
0 635 635 635 635 635 635 635 635 635 44 635 635 32 8 635 635 635 635 635 30 635 635 635 635 635 5 65 635 635 22 635 8 635 8 27 17 635 635 14 19 635 635 635 635 635 6 635 635 23 635 635 635 635 635 22 635 635 635 24 635 635 52 635 635 13 635 635 21 635 635 635 635 635 635 40 12 635 635 635 635 635 635 635 635 635 635 635 635 635 635 635 635 635 40 26
635 0 635 635 635 635 635 635 635 9 17 24 635 635 635 635 635 27 635 635 635 635 22 635 635 18 635 10 635 635 635 635 63 635 635 635 635 635 635 635 635 635 635 635 635 635 635 8 635 635 635 14 635 635 635 635 635 635 635 635 635 635 12 635 26 635 635 635 635 635 635 635 635 635 635 20 635 25 635 635 17 635 635 635 635 22 635 635 635 635 635 635 635 635 22 635
635 635 0 635 16 635 27 635 635 635 635 635 17 635 635 635 635 635 20 26 635 635 635 635 635 635 635 635 635 635 635 15 635 635 635 635 635 22 67 635 635 635 635 25 635 635 635 635 635 635 18 635 34 31 635 635 635 13 635 635 635 635 635 21 635 635 635 635 635 635 635 23 635 635 41 635 635 635 21 635 635 635 30 28 635 635 635 635 22 635 28 635 635 6 635 635
635 635 635 0 635 635 635 635 17 635 635 635 635 635 43 635 20 635 635 635 11 635 635 635 635 635 635 635 635 635 26 635 635 635 635 635 20 635 635 635 19 635 34 635 49 31 635 635 635 14 635 635 635 635 635 17 635 635 635 635 635 635 635 635 635 635 9 635 635 43 635 635 26 635 39 635 635 635 635 635 635 635 635 635 635 635 635 14 635 5 635 635 635 635 635 635
635 635 16 635 0 635 27 29 635 635 635 635 26 635 635 635 635 635 35 18 635 635 635 635 635 635 635 635 635 635 635 21 635 25 635 635 635 635 53 635 635 635 635 38 31 635 635 635 635 635 29 635 635 20 635 635 635 3 635 635 635 20 635 635 635 635 635 635 635 56 635 38 635 635 635 635 635 635 6 635 635 635 635 635 635 635 635 635 635 635 635 635 26 20 635 635
635 635 635 635 635 0 18 15 31 635 635 635 635 635 635 635 16 635 635 17 635 3 635 635 635 635 635 635 3 7 635 30 635 12 635 635 635 635 635 635 635 635 9 635 635 7 635 635 635 635 635 635 8 635 635 635 16 635 6 635 10 635 635 635 635 635 635 635 635 635 635 635 635 2 22 635 635 635 635 635 635 635 635 635 635 635 635 635 635 635 635 635 635 635 635 635
635 635 27 635 27 18 0 26 635 635 635 635 635 635 635 26 29 635 31 14 635 19 635 635 635 635 635 635 21 19 635 13 635 19 635 635 635 30 635 635 635 29 27 635 635 19 635 635 25 635 635 635 14 21 635 635 12 26 635 635 12 23 635 15 635 635 635 635 635 635 635 635 33 19 16 635 635 635 26 635 635 635 26 635 635 635 27 36 635 635 40 635 635 33 635 635
635 635 635 635 29 15 26 0 37 635 635 635 635 635 635 635 30 635 635 15 58 12 635 635 635 635 635 635 13 9 635 635 635 7 635 635 635 635 29 635 635 635 13 635 6 22 635 635 635 635 635 635 13 9 635 635 635 635 12 635 635 9 635 635 635 635 635 635 635 28 635 635 635 13 635 635 635 635 23 635 635 635 635 635 635 635 635 635 635 635 635 635 5 635 635 635
635 635 635 17 635 31 635 37 0 635 635 635 635 635 635 46 22 635 635 635 27 635 635 635 635 635 635 635 29 635 41 635 635 635 635 635 635 635 37 635 36 635 25 635 37 30 635 635 635 31 635 635 635 635 635 34 41 635 28 635 37 635 635 635 635 635 25 635 635 26 635 635 37 635 44 635 635 635 635 635 635 635 635 635 635 635 635 20 635 21 635 635 41 635 635 635
635 9 635 635 635 635 635 635 635 0 14 15 635 22 635 635 635 23 635 635 635 635 16 635 635 20 635 18 635 635 635 635 57 635 635 635 635 635 635 40 635 635 635 635 635 635 635 15 635 635 635 19 635 635 635 635 635 635 635 635 635 635 13 635 19 635 635 635 635 635 635 635 635 635 635 14 635 28 635 635 12 29 635 635 635 14 635 635 635 635 635 26 635 635 17 635
44 17 635 635 635 635 635 635 635 14 0 22 635 13 635 635 635 635 635 635 635 635 29 635 635 635 635 21 635 635 635 635 46 635 635 635 635 635 635 30 635 635 635 635 635 635 635 18 635 635 635 31 635 635 635 635 635 635 635 635 635 635 8 635 14 635 635 635 635 635 635 635 635 635 635 6 635 635 635 635 25 26 635 635 635 21 635 635 635 635 635 635 635 635 5 28
635 24 635 635 635 635 635 635 635 15 22 0 635 21 635 26 635 21 635 635 635 635 11 635 635 29 635 635 635 635 635 635 635 635 635 21 635 635 635 33 635 20 635 635 635 635 635 635 22 635 635 635 635 635 635 635 635 635 635 24 635 635 635 43 15 635 635 635 28 635 31 635 33 635 33 18 635 635 635 24 12 19 34 635 31 1 20 635 635 635 635 15 635 635 22 21
635 635 17 635 26 635 635 635 635 635 635 635 0 635 635 635 635 635 28 42 635 635 635 635 635 635 635 635 635 635 635 31 635 635 635 635 635 635 79 635 635 635 635 13 58 635 635 635 635 635 4 635 635 45 23 635 635 25 635 635 635 46 635 635 635 635 635 635 635 635 635 22 635 635 635 635 635 635 33 635 635 635 635 30 635 635 635 635 23 635 635 635 53 11 635 635
32 635 635 635 635 635 635 635 635 22 13 21 635 0 36 635 635 635 635 635 635 635 31 635 635 635 635 33 635 635 635 635 35 635 635 21 635 635 635 18 635 635 635 635 635 635 27 635 635 635 635 635 635 635 635 635 635 635 635 20 635 635 21 635 6 635 635 635 24 635 635 635 635 635 635 9 635 635 635 635 30 15 635 635 635 20 36 635 635 635 635 635 635 635 8 16
8 635 635 43 635 635 635 635 635 635 635 635 635 36 0 635 635 635 635 635 35 635 635 635 635 635 13 635 635 635 635 635 1 635 16 635 23 635 635 19 25 635 635 635 635 635 14 635 635 29 635 635 635 635 635 30 635 635 635 635 635 635 55 635 635 19 36 635 29 635 635 635 635 635 635 635 19 635 635 635 635 635 635 635 635 635 635 635 635 41 635 635 635 635 43 635
635 635 635 635 635 635 26 635 46 635 635 26 635 635 635 0 25 635 635 635 635 635 31 635 635 635 635 635 635 635 23 35 635 635 635 19 635 635 635 635 635 20 635 635 635 24 635 635 8 635 635 635 635 635 635 29 16 635 635 22 635 635 635 30 32 635 635 635 23 635 19 635 13 635 10 635 635 635 635 34 635 23 31 635 635 635 9 27 635 635 635 22 635 635 635 23
635 635 635 20 635 16 29 30 22 635 635 635 635 635 635 25 0 635 635 635 31 19 635 635 635 635 635 635 17 635 28 42 635 635 41 35 635 635 46 635 635 635 18 635 33 11 635 635 32 30 635 635 24 635 635 26 20 635 18 635 17 635 635 43 635 635 28 635 635 38 27 635 18 18 22 635 635 635 635 635 635 635 635 635 635 635 33 7 635 18 635 635 635 635 635 635
635 27 635 635 635 635 635 635 635 23 635 21 635 635 635 635 635 0 635 635 635 635 10 33 22 17 635 36 635 635 635 635 635 635 635 41 635 635 635 635 635 18 635 635 635 635 635 635 29 635 635 22 635 635 46 635 635 635 635 635 635 635 635 36 35 635 635 24 635 635 635 635 635 635 635 35 635 19 635 7 12 635 24 35 10 21 28 635 635 635 635 15 635 635 635 635
635 635 20 635 35 635 31 635 635 635 635 635 28 635 635 635 635 635 0 39 635 635 635 15 16 635 635 635 635 635 635 20 635 635 635 635 635 3 635 635 635 31 635 25 635 635 635 635 38 635 26 635 44 635 17 635 40 32 635 635 635 635 635 17 635 635 635 14 635 635 635 11 635 635 39 635 635 635 39 29 635 635 15 10 635 635 635 635 8 635 9 635 635 20 635 635
635 635 26 635 18 17 14 15 635 635 635 635 42 635 635 635 635 635 39 0 635 15 635 635 635 635 635 635 635 12 635 19 635 8 635 635 635 39 43 635 635 635 635 635 635 22 635 635 39 635 635 635 9 7 635 635 23 18 20 635 19 9 635 25 635 635 635 635 635 635 635 635 635 635 28 635 635 635 14 635 635 635 635 635 635 635 635 635 635 635 635 635 16 32 635 635
30 635 635 11 635 635 635 58 27 635 635 635 635 635 35 635 31 635 635 635 0 635 635 635 635 635 635 635 635 635 635 635 36 635 635 635 13 635 64 635 11 635 45 635 60 42 635 635 635 8 635 635 635 635 635 17 635 635 635 635 635 635 635 635 635 17 3 635 635 53 635 635 31 635 635 635 18 635 635 635 635 635 635 635 635 635 635 24 635 13 635 635 635 635 635 635
635 635 635 635 635 3 19 12 635 635 635 635 635 635 635 635 19 635 635 15 635 0 635 635 635 635 635 635 3 4 635 635 635 9 635 635 635 635 635 635 635 635 8 635 17 10 635 635 635 635 635 635 6 15 635 635 19 635 5 635 13 16 635 635 635 635 635 635 635 635 635 635 635 2 635 635 635 635 635 635 635 635 635 635 635 635 635 635 635 635 635 635 635 635 635 635
635 22 635 635 635 635 635 635 635 16 29 11 635 31 635 31 635 10 635 635 635 635 0 635 30 20 635 635 635 635 635 635 635 635 635 32 635 635 635 635 635 17 635 635 635 635 635 635 25 635 635 23 635 635 635 635 635 635 635 635 635 635 29 635 25 635 635 635 635 635 635 635 635 635 635 26 635 25 635 14 5 30 28 635 19 11 23 635 635 635 635 12 635 635 635 635
635 635 635 635 635 635 635 635 635 635 635 635 635 635 635 635 635 33 15 635 635 635 635 0 12 43 635 635 635 635 635 635 635 635 635 635 635 15 635 635 635 37 635 26 635 635 635 635 635 635 33 50 635 635 14 635 635 635 635 635 635 635 635 31 635 635 635 10 635 635 635 13 635 635 635 635 635 39 635 28 45 635 24 6 25 635 635 635 13 635 6 39 635 32 635 635
635 635 635 635 635 635 635 635 635 635 635 635 635 635 635 635 635 22 16 635 635 635 30 12 0 34 635 635 635 635 635 635 635 635 635 635 635 14 635 635 635 25 635 635 635 635 635 635 36 635 635 635 635 635 24 635 635 635 635 635 635 635 635 25 635 635 635 2 635 635 635 635 635 635 635 635 635 31 635 16 635 635 15 14 15 635 36 635 20 635 12 27 635 635 635 635
635 18 635 635 635 635 635 635 635 20 635 29 635 635 635 635 635 17 635 635 635 635 20 43 34 0 635 24 635 635 635 635 635 635 635 635 635 635 635 635 635 635 635 635 635 635 635 23 635 635 635 6 635 635 57 635 635 635 635 635 635 635 29 635 635 635 635 635 635 635 635 635 635 635 635 635 635 8 635 23 17 635 635 635 19 28 635 635 635 635 635 30 635 635 635 635
5 635 635 635 635 635 635 635 635 635 635 635 635 635 13 635 635 635 635 635 635 635 635 635 635 635 0 635 635 635 17 635 13 635 4 635 13 635 635 15 15 635 635 635 635 635 5 635 635 19 635 635 635 635 635 17 635 635 635 21 635 635 635 635 635 9 635 635 18 635 21 635 30 635 635 635 8 635 635 635 635 635 635 635 635 635 635 635 635 635 635 635 635 635 40 635
65 10 635 635 635 635 635 635 635 18 21 635 635 33 635 635 635 36 635 635 635 635 635 635 635 24 635 0 635 635 635 635 66 635 635 635 635 635 635 51 635 635 635 635 635 635 635 3 635 635 635 18 635 635 635 635 635 635 635 635 635 635 13 635 635 635 635 635 635 635 635 635 635 635 635 25 635 31 635 635 28 635 635 635 42 32 635 635 635 635 635 635 635 635 25 635
635 635 635 635 635 3 21 13 29 635 635 635 635 635 635 635 17 635 635 635 635 3 635 635 635 635 635 635 0 6 635 635 635 12 635 635 635 635 635 635 635 635 6 635 18 9 635 635 635 635 635 635 9 635 635 635 19 635 3 635 13 635 635 635 635 635 635 635 635 31 635 635 635 2 25 635 635 635 635 635 635 635 635 635 635 635 635 23 635 635 635 635 18 635 635 635
635 635 635 635 635 7 19 9 635 635 635 635 635 635 635 635 635 635 635 12 635 4 635 635 635 635 635 635 6 0 635 29 635 5 635 635 635 635 635 635 635 635 10 635 14 14 635 635 635 635 635 635 5 11 635 635 635 635 7 635 15 12 635 635 635 635 635 635 635 33 635 635 635 5 635 635 635 635 24 635 635 635 635 635 635 635 635 635 635 635 635 635 13 635 635 635
22 635 635 26 635 635 635 635 41 635 635 635 635 635 635 23 28 635 635 635 635 635 635 635 635 635 17 635 635 635 0 635 635 635 14 13 17 635 635 20 635 635 635 635 635 635 16 635 635 19 635 635 635 635 635 10 635 635 635 11 635 635 635 635 635 17 635 635 7 635 4 635 13 635 30 635 17 635 635 635 635 635 635 635 635 635 29 24 635 22 635 635 635 635 635 15
635 635 15 635 21 30 13 635 635 635 635 635 31 635 635 35 42 635 20 19 635 635 635 635 635 635 635 635 635 29 635 0 635 27 635 635 635 20 62 635 635 31 635 635 635 635 635 635 32 635 32 635 24 26 635 635 24 19 635 635 25 28 635 8 635 635 635 31 635 635 635 29 635 635 27 635 635 635 23 635 635 635 21 635 635 635 635 635 26 635 29 635 635 20 635 635
8 63 635 635 635 635 635 635 635 57 46 635 635 35 1 635 635 635 635 635 36 635 635 635 635 635 13 66 635 635 635 635 0 635 16 635 24 635 635 18 25 635 635 635 635 635 14 64 635 635 635 76 635 635 635 635 635 635 635 31 635 635 54 635 39 20 635 635 28 635 635 635 635 635 635 43 19 635 635 635 635 34 635 635 635 635 635 635 635 635 635 635 635 635 42 32
635 635 635 635 25 12 19 7 635 635 635 635 635 635 635 635 635 635 635 8 635 9 635 635 635 635 635 635 12 5 635 27 635 0 635 635 635 635 36 635 635 635 15 635 13 635 635 635 635 635 635 635 6 6 635 635 24 25 12 635 18 7 635 32 635 635 635 635 635 635 635 635 635 10 635 635 635 635 19 635 635 635 635 635 635 635 635 635 635 635 635 635 10 635 635 635
8 635 635 635 635 635 635 635 635 635 635 635 635 635 16 635 41 635 635 635 635 635 635 635 635 635 4 635 635 635 14 635 16 635 0 21 14 635 635 12 17 635 635 635 635 635 3 635 635 20 635 635 635 635 635 16 635 635 635 17 635 635 635 635 635 11 635 635 14 635 17 635 27 635 635 635 10 635 635 635 635 635 635 635 635 635 635 35 635 29 635 635 635 635 635 20
27 635 635 635 635 635 635 635 635 635 635 21 635 21 635 19 35 41 635 635 635 635 32 635 635 635 635 635 635 635 13 635 635 635 21 0 635 635 635 19 635 31 635 635 635 635 21 635 22 635 635 635 635 635 635 23 34 635 635 4 635 635 635 48 18 635 635 635 7 635 10 635 17 635 28 26 635 635 635 42 635 6 635 635 635 22 21 33 635 635 635 29 635 635 28 5
17 635 635 20 635 635 635 635 635 635 635 635 635 635 23 635 635 635 635 635 13 635 635 635 635 635 13 635 635 635 17 635 24 635 14 635 0 635 635 635 3 635 635 635 635 635 17 635 635 6 635 635 635 635 635 10 635 635 635 635 635 635 635 635 635 4 14 635 22 635 635 635 26 635 635 635 5 635 635 635 635 635 635 635 635 635 635 27 635 18 635 635 635 635 635 635
635 635 22 635 635 635 30 635 635 635 635 635 635 635 635 635 635 635 3 39 635 635 635 15 14 635 635 635 635 635 635 20 635 635 635 635 635 0 635 635 635 28 635 635 635 635 635 635 36 635 635 635 635 635 19 635 635 34 635 635 635 635 635 15 635 635 635 12 635 635 635 14 635 635 37 635 635 635 635 26 635 635 13 11 28 635 36 635 11 635 10 32 635 22 635 635
635 635 67 635 53 635 635 29 37 635 635 635 79 635 635 635 46 635 635 43 64 635 635 635 635 635 635 635 635 635 635 62 635 36 635 635 635 635 0 635 635 635 31 635 23 635 635 635 635 635 82 635 635 37 635 635 635 55 33 635 635 35 635 635 635 635 635 635 635 12 635 635 635 635 635 635 635 635 46 635 635 635 635 635 635 635 635 635 635 635 635 635 28 72 635 635
14 635 635 635 635 635 635 635 635 40 30 33 635 18 19 635 635 635 635 635 635 635 635 635 635 635 15 51 635 635 20 635 18 635 12 19 635 635 635 0 29 635 635 635 635 635 10 48 635 635 635 635 635 635 635 27 635 635 635 16 635 635 38 635 21 23 635 635 15 635 22 635 32 635 635 26 22 635 635 635 635 17 635 635 635 34 635 635 635 635 635 635 635 635 26 15
19 635 635 19 635 635 635 635 36 635 635 635 635 635 25 635 635 635 635 635 11 635 635 635 635 635 15 635 635 635 635 635 25 635 17 635 3 635 635 29 0 635 635 635 635 635 635 635 635 5 635 635 635 635 635 12 635 635 635 635 635 635 635 635 635 6 12 635 635 635 635 635 635 635 635 635 7 635 635 635 635 635 635 635 635 635 635 28 635 18 635 635 635 635 635 635
635 635 635 635 635 635 29 635 635 635 635 20 635 635 635 20 635 18 31 635 635 635 17 37 25 635 635 635 635 635 635 31 635 635 635 31 635 28 635 635 635 0 635 635 635 635 635 635 12 635 635 635 635 635 635 635 27 635 635 635 635 635 635 23 635 635 635 27 635 635 635 635 32 635 22 635 635 36 635 15 21 31 15 635 23 21 12 635 635 635 34 5 635 635 635 635
635 635 635 34 635 9 27 13 25 635 635 635 635 635 635 635 18 635 635 635 45 8 635 635 635 635 635 635 6 10 635 635 635 15 635 635 635 635 31 635 635 635 0 635 16 14 635 635 635 635 635 635 14 635 635 43 25 635 3 635 19 21 635 635 635 635 42 635 635 25 635 635 35 8 30 635 635 635 34 635 635 635 635 635 635 635 635 23 635 34 635 635 18 635 635 635
635 635 25 635 38 635 635 635 635 635 635 635 13 635 635 635 635 635 25 635 635 635 635 26 635 635 635 635 635 635 635 635 635 635 635 635 635 635 635 635 635 635 635 0 635 635 635 635 635 635 10 635 635 635 13 635 635 36 635 635 635 635 635 635 635 635 635 635 635 635 635 15 635 635 635 635 635 65 635 635 635 635 635 23 635 635 635 635 17 635 25 635 635 19 635 635
635 635 635 49 31 635 635 6 37 635 635 635 58 635 635 635 33 635 635 635 60 17 635 635 635 635 635 635 18 14 635 635 635 13 635 635 635 635 23 635 635 635 16 635 0 27 635 635 635 635 635 635 635 14 635 635 635 33 16 635 635 12 635 635 635 635 635 635 635 25 635 635 635 635 635 635 635 635 25 635 635 635 635 635 635 635 635 39 635 635 635 635 5 635 635 635
635 635 635 31 635 7 19 22 30 635 635 635 635 635 635 24 11 635 635 22 42 10 635 635 635 635 635 635 9 14 635 635 635 635 635 635 635 635 635 635 635 635 14 635 27 0 635 635 635 635 635 635 13 635 635 635 12 635 12 635 7 635 635 33 635 635 635 635 635 38 635 635 23 9 17 635 635 635 635 635 635 635 635 635 635 635 635 18 635 635 635 635 635 635 635 635
6 635 635 635 635 635 635 635 635 635 635 635 635 27 14 635 635 635 635 635 635 635 635 635 635 635 5 635 635 635 16 635 14 635 3 21 17 635 635 10 635 635 635 635 635 635 0 635 635 635 635 635 635 635 635 19 635 635 635 18 635 635 48 635 635 14 635 635 15 635 19 635 29 635 635 635 13 635 635 635 635 635 635 635 635 635 635 635 635 635 635 635 635 635 35 19
635 8 635 635 635 635 635 635 635 15 18 635 635 635 635 635 635 635 635 635 635 635 635 635 635 23 635 3 635 635 635 635 64 635 635 635 635 635 635 48 635 635 635 635 635 635 635 0 635 635 635 18 635 635 635 635 635 635 635 635 635 635 10 635 635 635 635 635 635 635 635 635 635 635 635 22 635 31 635 635 25 635 635 635 635 29 635 635 635 635 635 635 635 635 22 635
635 635 635 635 635 635 25 635 635 635 635 22 635 635 635 8 32 29 38 39 635 635 25 635 36 635 635 635 635 635 635 32 635 635 635 22 635 36 635 635 635 12 635 635 635 635 635 635 0 635 635 635 635 635 635 635 18 635 635 635 24 635 635 26 635 635 635 38 635 635 25 635 20 635 12 635 635 635 635 27 635 25 24 635 635 635 2 34 635 635 635 14 635 635 635 635
23 635 635 14 635 635 635 635 31 635 635 635 635 635 29 635 30 635 635 635 8 635 635 635 635 635 19 635 635 635 19 635 635 635 20 635 6 635 635 635 5 635 635 635 635 635 635 635 635 0 635 635 635 635 635 10 635 635 635 635 635 635 635 635 635 10 8 635 635 57 635 635 26 635 635 635 11 635 635 635 635 635 635 635 635 635 635 23 635 13 635 635 635 635 635 635
635 635 18 635 29 635 635 635 635 635 635 635 4 635 635 635 635 635 26 635 635 635 635 33 635 635 635 635 635 635 635 32 635 635 635 635 635 635 82 635 635 635 635 10 635 635 635 635 635 635 0 635 635 635 20 635 635 27 635 635 635 635 635 635 635 635 635 635 635 635 635 20 635 635 635 635 635 635 35 635 635 635 635 28 635 635 635 635 21 635 29 635 635 12 635 635
635 14 635 635 635 635 635 635 635 19 31 635 635 635 635 635 635 22 635 635 635 635 23 50 635 6 635 18 635 635 635 635 76 635 635 635 635 635 635 635 635 635 635 635 635 635 635 18 635 635 635 0 635 635 635 635 635 635 635 635 635 635 25 635 635 635 635 635 635 635 635 635 635 635 635 33 635 13 635 29 19 635 635 635 26 29 635 635 635 635 635 34 635 635 635 635
635 635 34 635 635 8 14 13 635 635 635 635 635 635 635 635 24 635 44 9 635 6 635 635 635 635 635 635 9 5 635 24 635 6 635 635 635 635 635 635 635 635 14 635 635 13 635 635 635 635 635 635 0 11 635 635 17 28 11 635 12 13 635 29 635 635 635 635 635 635 635 635 635 7 23 635 635 635 23 635 635 635 635 635 635 635 635 635 635 635 635 635 16 635 635 635
635 635 31 635 20 635 21 9 635 635 635 635 45 635 635 635 635 635 635 7 635 15 635 635 635 635 635 635 635 11 635 26 635 6 635 635 635 635 37 635 635 635 635 635 14 635 635 635 635 635 635 635 11 0 635 635 635 21 18 635 23 2 635 635 635 635 635 635 635 635 635 635 635 635 635 635 635 635 14 635 635 635 635 635 635 635 635 635 635 635 635 635 9 635 635 635
635 635 635 635 635 635 635 635 635 635 635 635 23 635 635 635 635 46 17 635 635 635 635 14 24 57 635 635 635 635 635 635 635 635 635 635 635 19 635 635 635 635 635 13 635 635 635 635 635 635 20 635 635 635 0 635 635 635 635 635 635 635 635 635 635 635 635 22 635 635 635 6 635 635 635 635 635 53 635 40 635 635 635 11 39 635 635 635 8 635 13 635 635 23 635 635
22 635 635 17 635 635 635 635 34 635 635 635 635 635 30 29 26 635 635 635 17 635 635 635 635 635 17 635 635 635 10 635 635 635 16 23 10 635 635 27 12 635 43 635 635 635 19 635 635 10 635 635 635 635 635 0 37 635 635 635 635 635 635 635 635 12 15 635 17 635 13 635 17 635 35 635 12 635 635 635 635 635 635 635 635 635 635 20 635 13 635 635 635 635 635 635
635 635 635 635 635 16 12 635 41 635 635 635 635 635 635 16 20 635 40 23 635 19 635 635 635 635 635 635 19 635 635 24 635 24 635 34 635 635 635 635 635 27 25 635 635 12 635 635 18 635 635 635 17 635 635 37 0 635 22 635 6 635 635 23 635 635 635 635 635 50 635 635 21 18 6 635 635 635 635 635 635 635 635 635 635 635 635 25 635 635 635 635 635 635 635 635
635 635 13 635 3 635 26 635 635 635 635 635 25 635 635 635 635 635 32 18 635 635 635 635 635 635 635 635 635 635 635 19 635 25 635 635 635 34 55 635 635 635 635 36 33 635 635 635 635 635 27 635 28 21 635 635 635 0 635 635 35 21 635 27 635 635 635 635 635 635 635 36 635 635 42 635 635 635 8 635 635 635 635 635 635 635 635 635 35 635 41 635 28 17 635 635
635 635 635 635 635 6 635 12 28 635 635 635 635 635 635 635 18 635 635 20 635 5 635 635 635 635 635 635 3 7 635 635 635 12 635 635 635 635 33 635 635 635 3 635 16 12 635 635 635 635 635 635 11 18 635 635 22 635 0 635 16 19 635 635 635 635 635 635 635 28 635 635 635 5 635 635 635 635 635 635 635 635 635 635 635 635 635 635 635 635 635 635 17 635 635 635
24 635 635 635 635 635 635 635 635 635 635 24 635 20 635 22 635 635 635 635 635 635 635 635 635 635 21 635 635 635 11 635 31 635 17 4 635 635 635 16 635 635 635 635 635 635 18 635 635 635 635 635 635 635 635 635 635 635 635 0 635 635 635 635 18 635 635 635 4 635 10 635 18 635 635 26 635 635 635 635 635 6 635 635 635 635 25 635 635 635 635 635 635 635 28 4
635 635 635 635 635 10 12 635 37 635 635 635 635 635 635 635 17 635 635 19 635 13 635 635 635 635 635 635 13 15 635 25 635 18 635 635 635 635 635 635 635 635 19 635 635 7 635 635 24 635 635 635 12 23 635 635 6 35 16 635 0 635 635 26 635 635 635 635 635 635 635 635 24 12 12 635 635 635 635 635 635 635 635 635 635 635 635 635 635 635 635 635 635 635 635 635
635 635 635 635 20 635 23 9 635 635 635 635 46 635 635 635 635 635 635 9 635 16 635 635 635 635 635 635 635 12 635 28 635 7 635 635 635 635 35 635 635 635 21 635 12 635 635 635 635 635 635 635 13 2 635 635 635 21 19 635 635 0 635 635 635 635 635 635 635 37 635 635 635 635 635 635 635 635 14 635 635 635 635 635 635 635 635 635 635 635 635 635 7 635 635 635
52 12 635 635 635 635 635 635 635 13 8 635 635 21 55 635 635 635 635 635 635 635 29 635 635 29 635 13 635 635 635 635 54 635 635 635 635 635 635 38 635 635 635 635 635 635 48 10 635 635 635 25 635 635 635 635 635 635 635 635 635 635 0 635 21 635 635 635 635 635 635 635 635 635 635 13 635 37 635 635 25 635 635 635 635 24 635 635 635 635 635 635 635 635 13 35
635 635 21 635 635 635 15 635 635 635 635 43 635 635 635 30 43 36 17 25 635 635 635 31 25 635 635 635 635 635 635 8 635 32 635 48 635 15 635 635 635 23 635 635 635 33 635 635 26 635 635 635 29 635 635 635 23 27 635 635 26 635 635 0 635 635 635 25 635 635 635 635 42 635 24 635 635 635 31 30 635 635 13 26 35 635 27 635 24 635 25 28 635 25 635 635
635 26 635 635 635 635 635 635 635 19 14 15 635 6 635 32 635 35 635 635 635 635 25 635 635 635 635 635 635 635 635 635 39 635 635 18 635 635 635 21 635 635 635 635 635 635 635 635 635 635 635 635 635 635 635 635 635 635 635 18 635 635 21 635 0 635 635 635 635 635 635 635 635 635 635 8 635 635 635 635 24 12 635 635 635 14 30 635 635 635 635 29 635 635 11 14
13 635 635 635 635 635 635 635 635 635 635 635 635 635 19 635 635 635 635 635 17 635 635 635 635 635 9 635 635 635 17 635 20 635 11 635 4 635 635 23 6 635 635 635 635 635 14 635 635 10 635 635 635 635 635 12 635 635 635 635 635 635 635 635 635 0 17 635 635 635 635 635 635 635 635 635 1 635 635 635 635 635 635 635 635 635 635 635 635 22 635 635 635 635 48 635
635 635 635 9 635 635 635 635 25 635 635 635 635 635 36 635 28 635 635 635 3 635 635 635 635 635 635 635 635 635 635 635 635 635 635 635 14 635 635 635 12 635 42 635 635 635 635 635 635 8 635 635 635 635 635 15 635 635 635 635 635 635 635 635 635 17 0 635 635 51 635 635 28 635 635 635 18 635 635 635 635 635 635 635 635 635 635 21 635 9 635 635 635 635 635 635
635 635 635 635 635 635 635 635 635 635 635 635 635 635 635 635 635 24 14 635 635 635 635 10 2 635 635 635 635 635 635 31 635 635 635 635 635 12 635 635 635 27 635 635 635 635 635 635 38 635 635 635 635 635 22 635 635 635 635 635 635 635 635 25 635 635 635 0 635 635 635 19 635 635 635 635 635 33 635 19 635 635 15 11 17 635 635 635 17 635 9 29 635 34 635 635
21 635 635 635 635 635 635 635 635 635 635 28 635 24 29 23 635 635 635 635 635 635 635 635 635 635 18 635 635 635 7 635 28 635 14 7 22 635 635 15 635 635 635 635 635 635 15 635 635 635 635 635 635 635 635 17 635 635 635 4 635 635 635 635 635 635 635 635 0 635 7 635 17 635 32 635 20 635 635 635 635 11 635 635 635 635 27 31 635 635 635 635 635 635 32 8
635 635 635 43 56 635 635 28 26 635 635 635 635 635 635 635 38 635 635 635 53 635 635 635 635 635 635 635 31 33 635 635 635 635 635 635 635 635 12 635 635 635 25 635 25 38 635 635 635 57 635 635 635 635 635 635 50 635 28 635 635 37 635 635 635 635 51 635 635 0 635 635 56 635 635 635 635 635 50 635 635 635 635 635 635 635 635 40 635 46 635 635 30 635 635 635
635 635 635 635 635 635 635 635 635 635 635 31 635 635 635 19 27 635 635 635 635 635 635 635 635 635 21 635 635 635 4 635 635 635 17 10 635 635 635 22 635 635 635 635 635 635 19 635 25 635 635 635 635 635 635 13 635 635 635 10 635 635 635 635 635 635 635 635 7 635 0 635 10 635 27 635 21 635 635 635 635 15 635 635 635 635 25 24 635 23 635 635 635 635 635 14
635 635 23 635 38 635 635 635 635 635 635 635 22 635 635 635 635 635 11 635 635 635 635 13 635 635 635 635 635 635 635 29 635 635 635 635 635 14 635 635 635 635 635 15 635 635 635 635 635 635 20 635 635 635 6 635 635 36 635 635 635 635 635 635 635 635 635 19 635 635 635 0 635 635 635 635 635 51 635 635 635 635 635 8 36 635 635 635 3 635 10 635 635 20 635 635
635 635 635 26 635 635 33 635 37 635 635 33 635 635 635 13 18 635 635 635 31 635 635 635 635 635 30 635 635 635 13 635 635 635 27 17 26 635 635 32 635 32 35 635 635 23 29 635 20 26 635 635 635 635 635 17 21 635 635 18 24 635 635 42 635 635 28 635 17 56 10 635 0 635 18 635 28 635 635 635 635 23 635 635 635 635 21 17 635 21 635 33 635 635 635 21
635 635 635 635 635 2 19 13 635 635 635 635 635 635 635 635 18 635 635 635 635 2 635 635 635 635 635 635 2 5 635 635 635 10 635 635 635 635 635 635 635 635 8 635 635 9 635 635 635 635 635 635 7 635 635 635 18 635 5 635 12 635 635 635 635 635 635 635 635 635 635 635 635 0 635 635 635 635 635 635 635 635 635 635 635 635 635 635 635 635 635 635 635 635 635 635
635 635 41 39 635 22 16 635 44 635 635 33 635 635 635 10 22 635 39 28 635 635 635 635 635 635 635 635 25 635 30 27 635 635 635 28 635 37 635 635 635 22 30 635 635 17 635 635 12 635 635 635 23 635 635 35 6 42 635 635 12 635 635 24 635 635 635 635 32 635 27 635 18 635 0 635 635 635 635 36 635 635 28 635 635 635 14 26 635 36 635 25 635 635 635 635
40 20 635 635 635 635 635 635 635 14 6 18 635 9 635 635 635 35 635 635 635 635 26 635 635 635 635 25 635 635 635 635 43 635 635 26 635 635 635 26 635 635 635 635 635 635 635 22 635 635 635 33 635 635 635 635 635 635 635 26 635 635 13 635 8 635 635 635 635 635 635 635 635 635 635 0 635 635 635 635 23 20 635 635 635 17 635 635 635 635 635 33 635 635 4 22
12 635 635 635 635 635 635 635 635 635 635 635 635 635 19 635 635 635 635 635 18 635 635 635 635 635 8 635 635 635 17 635 19 635 10 635 5 635 635 22 7 635 635 635 635 635 13 635 635 11 635 635 635 635 635 12 635 635 635 635 635 635 635 635 635 1 18 635 20 635 21 635 28 635 635 635 0 635 635 635 635 635 635 635 635 635 635 31 635 22 635 635 635 635 635 635
635 25 635 635 635 635 635 635 635 28 635 635 635 635 635 635 635 19 635 635 635 635 25 39 31 8 635 31 635 635 635 635 635 635 635 635 635 635 635 635 635 36 635 65 635 635 635 31 635 635 635 13 635 635 53 635 635 635 635 635 635 635 37 635 635 635 635 33 635 635 635 51 635 635 635 635 635 0 635 23 23 635 39 43 17 34 635 635 50 635 41 33 635 635 635 635
635 635 21 635 6 635 26 23 635 635 635 635 33 635 635 635 635 635 39 14 635 635 635 635 635 635 635 635 635 24 635 23 635 19 635 635 635 635 46 635 635 635 34 635 25 635 635 635 635 635 35 635 23 14 635 635 635 8 635 635 635 14 635 31 635 635 635 635 635 50 635 635 635 635 635 635 635 635 0 635 635 635 635 635 635 635 635 635 635 635 635 635 20 26 635 635
635 635 635 635 635 635 635 635 635 635 635 24 635 635 635 34 635 7 29 635 635 635 14 28 16 23 635 635 635 635 635 635 635 635 635 42 635 26 635 635 635 15 635 635 635 635 635 635 27 635 635 29 635 635 40 635 635 635 635 635 635 635 635 30 635 635 635 19 635 635 635 635 635 635 36 635 635 23 635 0 17 635 17 635 9 24 26 635 635 635 27 13 635 635 635 635
635 17 635 635 635 635 635 635 635 12 25 12 635 30 635 635 635 12 635 635 635 635 5 45 635 17 635 28 635 635 635 635 635 635 635 635 635 635 635 635 635 21 635 635 635 635 635 25 635 635 635 19 635 635 635 635 635 635 635 635 635 635 25 635 24 635 635 635 635 635 635 635 635 635 635 23 635 23 635 17 0 31 635 635 21 12 27 635 635 635 635 16 635 635 27 635
635 635 635 635 635 635 635 635 635 29 26 19 635 15 635 23 635 635 635 635 635 635 30 635 635 635 635 635 635 635 635 635 34 635 635 6 635 635 635 17 635 31 635 635 635 635 635 635 25 635 635 635 635 635 635 635 635 635 635 6 635 635 635 635 12 635 635 635 11 635 15 635 23 635 635 20 635 635 635 635 31 0 635 635 635 19 24 635 635 635 635 29 635 635 23 2
635 635 30 635 635 635 26 635 635 635 635 34 635 635 635 31 635 24 15 635 635 635 28 24 15 635 635 635 635 635 635 21 635 635 635 635 635 13 635 635 635 15 635 635 635 635 635 635 24 635 635 635 635 635 635 635 635 635 635 635 635 635 635 13 635 635 635 15 635 635 635 635 635 635 28 635 635 39 635 17 635 635 0 22 22 635 24 635 23 635 19 19 635 635 635 635
635 635 28 635 635 635 635 635 635 635 635 635 30 635 635 635 635 35 10 635 635 635 635 6 14 635 635 635 635 635 635 635 635 635 635 635 635 11 635 635 635 635 635 23 635 635 635 635 635 635 28 635 635 635 11 635 635 635 635 635 635 635 635 26 635 635 635 11 635 635 635 8 635 635 635 635 635 43 635 635 635 635 22 0 28 635 635 635 7 635 2 635 635 26 635 635
635 635 635 635 635 635 635 635 635 635 635 31 635 635 635 635 635 10 635 635 635 635 19 25 15 19 635 42 635 635 635 635 635 635 635 635 635 28 635 635 635 23 635 635 635 635 635 635 635 635 635 26 635 635 39 635 635 635 635 635 635 635 635 35 635 635 635 17 635 635 635 36 635 635 635 635 635 17 635 9 21 635 22 28 0 635 35 635 635 635 26 22 635 635 635 635
635 22 635 635 635 635 635 635 635 14 21 1 635 20 635 635 635 21 635 635 635 635 11 635 635 28 635 32 635 635 635 635 635 635 635 22 635 635 635 34 635 21 635 635 635 635 635 29 635 635 635 29 635 635 635 635 635 635 635 635 635 635 24 635 14 635 635 635 635 635 635 635 635 635 635 17 635 34 635 24 12 19 635 635 635 0 21 635 635 635 635 16 635 635 21 21
635 635 635 635 635 635 27 635 635 635 635 20 635 36 635 9 33 28 635 635 635 635 23 635 36 635 635 635 635 635 29 635 635 635 635 21 635 36 635 635 635 12 635 635 635 635 635 635 2 635 635 635 635 635 635 635 635 635 635 25 635 635 635 27 30 635 635 635 27 635 25 635 21 635 14 635 635 635 635 26 27 24 24 635 35 21 0 635 635 635 635 13 635 635 635 25
635 635 635 14 635 635 36 635 20 635 635 635 635 635 635 27 7 635 635 635 24 635 635 635 635 635 635 635 23 635 24 635 635 635 35 33 27 635 635 635 28 635 23 635 39 18 635 635 34 23 635 635 635 635 635 20 25 635 635 635 635 635 635 635 635 635 21 635 31 40 24 635 17 635 26 635 31 635 635 635 635 635 635 635 635 635 635 0 635 11 635 635 635 635 635 635
635 635 22 635 635 635 635 635 635 635 635 635 23 635 635 635 635 635 8 635 635 635 635 13 20 635 635 635 635 635 635 26 635 635 635 635 635 11 635 635 635 635 635 17 635 635 635 635 635 635 21 635 635 635 8 635 635 35 635 635 635 635 635 24 635 635 635 17 635 635 635 3 635 635 635 635 635 50 635 635 635 635 23 7 635 635 635 635 0 635 8 635 635 19 635 635
635 635 635 5 635 635 635 635 21 635 635 635 635 635 41 635 18 635 635 635 13 635 635 635 635 635 635 635 635 635 22 635 635 635 29 635 18 635 635 635 18 635 34 635 635 635 635 635 635 13 635 635 635 635 635 13 635 635 635 635 635 635 635 635 635 22 9 635 635 46 23 635 21 635 36 635 22 635 635 635 635 635 635 635 635 635 635 11 635 0 635 635 635 635 635 635
635 635 28 635 635 635 40 635 635 635 635 635 635 635 635 635 635 635 9 635 635 635 635 6 12 635 635 635 635 635 635 29 635 635 635 635 635 10 635 635 635 34 635 25 635 635 635 635 635 635 29 635 635 635 13 635 635 41 635 635 635 635 635 25 635 635 635 9 635 635 635 10 635 635 635 635 635 41 635 27 635 635 19 2 26 635 635 635 8 635 0 635 635 27 635 635
635 635 635 635 635 635 635 635 635 26 635 15 635 635 635 22 635 15 635 635 635 635 12 39 27 30 635 635 635 635 635 635 635 635 635 29 635 32 635 635 635 5 635 635 635 635 635 635 14 635 635 34 635 635 635 635 635 635 635 635 635 635 635 28 29 635 635 29 635 635 635 635 33 635 25 33 635 33 635 13 16 29 19 635 22 16 13 635 635 635 635 0 635 635 635 31
635 635 635 635 26 635 635 5 41 635 635 635 53 635 635 635 635 635 635 16 635 635 635 635 635 635 635 635 18 13 635 635 635 10 635 635 635 635 28 635 635 635 18 635 5 635 635 635 635 635 635 635 16 9 635 635 635 28 17 635 635 7 635 635 635 635 635 635 635 30 635 635 635 635 635 635 635 635 20 635 635 635 635 635 635 635 635 635 635 635 635 635 0 635 635 635
635 635 6 635 20 635 33 635 635 635 635 635 11 635 635 635 635 635 20 32 635 635 635 32 635 635 635 635 635 635 635 20 635 635 635 635 635 22 72 635 635 635 635 19 635 635 635 635 635 635 12 635 635 635 23 635 635 17 635 635 635 635 635 25 635 635 635 34 635 635 635 20 635 635 635 635 635 635 26 635 635 635 635 26 635 635 635 635 19 635 27 635 635 0 635 635
40 22 635 635 635 635 635 635 635 17 5 22 635 8 43 635 635 635 635 635 635 635 635 635 635 635 40 25 635 635 635 635 42 635 635 28 635 635 635 26 635 635 635 635 635 635 35 22 635 635 635 635 635 635 635 635 635 635 635 28 635 635 13 635 11 48 635 635 32 635 635 635 635 635 635 4 635 635 635 635 27 23 635 635 635 21 635 635 635 635 635 635 635 635 0 24
26 635 635 635 635 635 635 635 635 635 28 21 635 16 635 23 635 635 635 635 635 635 635 635 635 635 635 635 635 635 15 635 32 635 20 5 635 635 635 15 635 635 635 635 635 635 19 635 635 635 635 635 635 635 635 635 635 635 635 4 635 635 35 635 14 635 635 635 8 635 14 635 21 635 635 22 635 635 635 635 635 2 635 635 635 21 25 635 635 635 635 31 635 635 24 0
EOF
